Bruniera/ragionamento automatico/progetto/benchmark/asp/mid23.lp
start(0).
limit(6).
n(14).
strada(0,1,15).
strada(0,4,9).
strada(0,6,3).
strada(0,10,16).
strada(0,13,11).
strada(1,2,11).
strada(1,4,10).
strada(1,5,10).
strada(1,7,5).
strada(1,13,12).
strada(2,0,20).
strada(2,1,18).
strada(2,6,15).
strada(2,7,18).
strada(2,8,0).
strada(2,10,3).
strada(2,12,3).
strada(2,13,3).
strada(3,0,1).
strada(3,2,9).
strada(3,4,15).
strada(3,5,8).
strada(3,7,14).
strada(3,8,5).
strada(3,9,13).
strada(3,10,20).
strada(3,11,8).
strada(3,12,10).
strada(3,13,13).
strada(4,0,11).
strada(4,1,1).
strada(4,2,9).
strada(4,5,3).
strada(4,6,6).
strada(4,7,12).
strada(4,10,1).
strada(5,0,5).
strada(5,1,6).
strada(5,2,11).
strada(5,4,11).
strada(5,7,8).
strada(5,10,5).
strada(5,13,8).
strada(6,1,13).
strada(6,2,11).
strada(6,3,16).
strada(6,5,15).
strada(6,8,8).
strada(6,11,18).
strada(7,2,0).
strada(7,4,8).
strada(7,5,18).
strada(7,6,1).
strada(7,12,9).
strada(8,0,14).
strada(8,1,0).
strada(8,3,13).
strada(8,4,3).
strada(8,9,10).
strada(8,10,5).
strada(8,11,11).
strada(8,12,5).
strada(9,2,18).
strada(9,3,19).
strada(9,4,11).
strada(9,8,2).
strada(10,2,2).
strada(10,3,20).
strada(10,5,5).
strada(10,6,18).
strada(10,7,9).
strada(10,11,4).
strada(10,13,17).
strada(11,0,20).
strada(11,6,15).
strada(11,7,0).
strada(11,9,13).
strada(12,1,15).
strada(12,3,0).
strada(12,4,3).
strada(12,5,13).
strada(12,6,0).
strada(12,10,16).
strada(13,0,6).
strada(13,1,9).
strada(13,2,19).
strada(13,7,7).
strada(13,9,8).
strada(13,10,8).
strada(13,11,4).
