Bruniera/ragionamento automatico/progetto/benchmark/minizinc/mid23.dzn
start = 1;
limit = 6;
n = 14;
m=[|-1,15,-1,-1,9,-1,3,-1,-1,-1,16,-1,-1,11,
|-1,-1,11,-1,10,10,-1,5,-1,-1,-1,-1,-1,12,
|20,18,-1,-1,-1,-1,15,18,0,-1,3,-1,3,3,
|1,-1,9,-1,15,8,-1,14,5,13,20,8,10,13,
|11,1,9,-1,-1,3,6,12,-1,-1,1,-1,-1,-1,
|5,6,11,-1,11,-1,-1,8,-1,-1,5,-1,-1,8,
|-1,13,11,16,-1,15,-1,-1,8,-1,-1,18,-1,-1,
|-1,-1,0,-1,8,18,1,-1,-1,-1,-1,-1,9,-1,
|14,0,-1,13,3,-1,-1,-1,-1,10,5,11,5,-1,
|-1,-1,18,19,11,-1,-1,-1,2,-1,-1,-1,-1,-1,
|-1,-1,2,20,-1,5,18,9,-1,-1,-1,4,-1,17,
|20,-1,-1,-1,-1,-1,15,0,-1,13,-1,-1,-1,-1,
|-1,15,-1,0,3,13,0,-1,-1,-1,16,-1,-1,-1,
|6,9,19,-1,-1,-1,-1,7,-1,8,8,4,-1,-1,
|]
;